Version identifier: 20.1.0.0 | 2020-11-10 | 9bedb6d68
CPXPARAM_Threads                                 1
CPXPARAM_TimeLimit                               7200
CPXPARAM_MIP_Tolerances_MIPGap                   0
Generic callback                                 0x60
1 of 1 MIP starts provided solutions.
MIP start 'm1' defined initial solution with objective 817.5972.
Tried aggregator 1 time.
Reduced MIP has 1 rows, 501 columns, and 500 nonzeros.
Reduced MIP has 500 binaries, 0 generals, 0 SOSs, and 0 indicators.
Presolve time = 0.00 sec. (0.15 ticks)
Probing time = 0.00 sec. (0.05 ticks)
Tried aggregator 1 time.
Reduced MIP has 1 rows, 501 columns, and 500 nonzeros.
Reduced MIP has 500 binaries, 0 generals, 0 SOSs, and 0 indicators.
Presolve time = 0.00 sec. (0.15 ticks)
Probing time = 0.00 sec. (0.05 ticks)
MIP emphasis: balance optimality and feasibility.
MIP search method: dynamic search.
Parallel mode: none, using 1 thread.
Root relaxation solution time = 0.00 sec. (0.10 ticks)

        Nodes                                         Cuts/
   Node  Left     Objective  IInf  Best Integer    Best Bound    ItCnt     Gap

*     0+    0                          817.5972     4368.0000           434.25%
      0     0     1070.2354     2      817.5972     4368.0000        0  434.25%
      0     0      975.1704     4      817.5972 UserPurge2: 1       21   19.27%
      0     0      956.1402     5      817.5972 UserPurge2: 1       31   16.95%
      0     0      889.5681     3      817.5972 UserPurge2: 1       45    8.80%
      0     0      877.8484     4      817.5972 UserPurge2: 1       51    7.37%
      0     0      874.7141     5      817.5972 UserPurge2: 1       58    6.99%
      0     0      863.8083     5      817.5972 UserPurge2: 1       67    5.65%

Repeating presolve.
Tried aggregator 1 time.
MIP Presolve eliminated 0 rows and 136 columns.
Reduced MIP has 1 rows, 365 columns, and 364 nonzeros.
Reduced MIP has 364 binaries, 0 generals, 0 SOSs, and 0 indicators.
Presolve time = 0.00 sec. (0.14 ticks)
Probing time = 0.00 sec. (0.04 ticks)
Tried aggregator 1 time.
Reduced MIP has 1 rows, 365 columns, and 364 nonzeros.
Reduced MIP has 364 binaries, 0 generals, 0 SOSs, and 0 indicators.
Presolve time = 0.00 sec. (0.11 ticks)
Represolve time = 0.00 sec. (1.05 ticks)
Probing time = 0.00 sec. (0.04 ticks)
MIP emphasis: balance optimality and feasibility.
MIP search method: dynamic search.
Parallel mode: none, using 1 thread.
Root relaxation solution time = 0.00 sec. (0.72 ticks)

        Nodes                                         Cuts/
   Node  Left     Objective  IInf  Best Integer    Best Bound    ItCnt     Gap

*     0+    0                          817.5972      863.8083             5.65%
      0     0      863.8083     5      817.5972      863.8083       87    5.65%
      0     0      851.8942     4      817.5972 UserPurge2: 1       98    4.19%
      0     0      847.3365     4      817.5972 UserPurge2: 1      109    3.64%
      0     0      847.0697     5      817.5972 UserPurge2: 1      112    3.60%
      0     0      844.0124     5      817.5972 UserPurge2: 1      120    3.23%
      0     0      843.6008     6      817.5972 UserPurge2: 1      123    3.18%
      0     2      843.6008     6      817.5972      843.5584      123    3.18%
Elapsed time = 5.86 sec. (15.50 ticks, tree = 0.01 MB, solutions = 1)
*     6     4      integral     0      819.4852      823.1619      779    0.45%
      7     3      821.3411    12      819.4852      821.3410     1843    0.23%
      8     4      820.8301     7      819.4852      821.3410     2749    0.23%
      9     5      820.6058     5      819.4852      821.3410     3161    0.23%
*    10+    3                          820.1964      821.3410             0.14%
     10     5      820.3409     4      820.1964      821.3410     3717    0.14%
*    20     0      integral     0      821.1520      821.1520     3885    0.00%

User cuts applied:  1265

Root node processing (before b&c):
  Real time             =    5.86 sec. (16.84 ticks)
Sequential b&c:
  Real time             =  277.94 sec. (1985.72 ticks)
                          ------------
Total (root+branch&cut) =  283.80 sec. (2002.56 ticks)
@Parameters: 
is_S_cut                                true
is_add_all_yinF                         true
is_start_value                          true
is_usercut                              true
is_visualization                        false
uc_only_rootnode                        false

data                                    Qi
fn                                      data/Qi/instance_800_500.csv
mode                                    NewSubmodular
solver                                  cplex

p                                       2
r                                       50

EPS                                     1.0e-06
EPS_vio                                 1.0e-04
beta                                    0.10
gap                                     0.00
nodelimit                               Inf
timelimit                               7200.00


@PrintInfos
ItCnt: 3885
Current gap: 0.00 %
Termination Status: OPTIMAL
Primal Status: FEASIBLE_POINT
Solve Time: 283.80 sec
Objective Value: 821.151982
Number of Nodes:     21

CutInfo: [phase] num / time (sec) 
ZLP             [phase1]     0 / 0.00 [rLC]     0 / 0.00 [rUC]     0 / 0.00 [sLC]     0 / 0.00 [sUC]     0 / 0.00 
OldSubmodular   [phase1]     0 / 0.00 [rLC]     0 / 0.00 [rUC]     0 / 0.00 [sLC]     0 / 0.00 [sUC]     0 / 0.00 
NewSubmodular   [phase1]     0 / 0.00 [rLC]    13 / 2.94 [rUC]    13 / 0.90 [sLC]     3 / 3.02 [sUC]  1255 / 273.24 
PMP             [phase1]     0 / 0.00 [rLC]     2 / 0.85 [rUC]     0 / 0.00 [sLC]     6 / 2.78 [sUC]    44 / 20.31 
Separation Round: [phase1] 0  [rLC] 14  [rUC] 13  [sLC] 6  [sUC] 395
Root Best Bound 823.162025
Root Best Integer: 817.597227
Best Bound: 821.151982
Best Integer: 821.151982

